jobs  (incl. supersource/sink ):	102
RESOURCES
- renewable                 : 4 R
- nonrenewable              : 2 N
- doubly constrained        : 0 D
************************************************************************
PRECEDENCE RELATIONS:
jobnr.    #modes  #successors   successors
1	1	9		2 3 5 6 7 8 9 12 13 
2	3	4		17 15 10 4 
3	3	4		20 17 10 4 
4	3	6		28 26 22 19 16 11 
5	3	6		26 22 20 19 15 14 
6	3	6		28 25 22 21 19 18 
7	3	5		25 22 21 18 15 
8	3	4		25 18 15 14 
9	3	7		34 32 28 26 25 24 18 
10	3	4		32 30 25 14 
11	3	5		30 25 24 21 18 
12	3	5		32 28 24 21 18 
13	3	4		34 32 28 18 
14	3	7		43 35 29 27 24 23 21 
15	3	8		37 36 34 33 32 30 27 24 
16	3	8		40 36 35 34 32 31 27 23 
17	3	7		40 37 36 35 32 27 26 
18	3	6		43 35 31 29 27 23 
19	3	5		35 34 32 24 23 
20	3	6		40 34 33 32 31 25 
21	3	8		47 44 41 40 38 36 34 31 
22	3	6		47 41 40 38 32 31 
23	3	7		47 42 41 39 38 37 33 
24	3	5		47 44 41 40 31 
25	3	6		43 42 41 38 37 35 
26	3	3		47 33 31 
27	3	6		46 44 42 41 39 38 
28	3	3		40 38 31 
29	3	5		51 47 45 40 36 
30	3	8		51 50 49 45 43 42 40 39 
31	3	7		51 50 49 46 45 42 39 
32	3	6		51 46 45 44 43 42 
33	3	8		57 52 51 50 48 46 45 44 
34	3	6		53 51 50 49 45 42 
35	3	5		57 52 48 47 45 
36	3	5		50 49 48 46 42 
37	3	8		61 59 57 56 52 51 50 46 
38	3	7		57 56 55 52 51 50 45 
39	3	6		64 62 59 57 55 48 
40	3	3		55 52 48 
41	3	8		64 62 60 59 57 55 54 53 
42	3	6		64 57 56 55 54 52 
43	3	4		64 62 57 48 
44	3	4		66 65 60 49 
45	3	7		66 65 63 62 61 59 54 
46	3	6		66 64 62 60 55 54 
47	3	2		55 50 
48	3	4		63 61 54 53 
49	3	5		64 63 62 56 54 
50	3	8		72 68 67 66 65 64 60 58 
51	3	8		77 74 73 72 67 65 64 58 
52	3	6		75 66 65 62 60 58 
53	3	4		77 73 66 56 
54	3	7		75 74 73 72 68 67 58 
55	3	5		80 71 68 63 58 
56	3	5		75 74 72 71 58 
57	3	5		82 79 69 66 63 
58	3	8		87 86 83 82 79 78 70 69 
59	3	8		83 81 79 78 74 73 71 69 
60	3	9		91 86 85 83 81 79 78 74 73 
61	3	6		87 80 77 73 71 70 
62	3	8		91 86 85 83 80 78 77 73 
63	3	6		98 86 77 76 75 70 
64	3	5		87 80 79 75 70 
65	3	4		86 81 78 69 
66	3	5		91 87 86 80 71 
67	3	5		100 91 86 78 71 
68	3	7		101 91 90 81 79 78 76 
69	3	7		100 98 97 91 90 85 76 
70	3	7		100 95 91 90 85 84 81 
71	3	6		101 99 98 97 90 76 
72	3	6		101 100 99 84 80 78 
73	3	4		100 99 90 76 
74	3	7		99 98 97 96 93 89 82 
75	3	4		100 94 84 78 
76	3	5		95 94 93 89 84 
77	3	5		101 97 94 93 92 
78	3	4		96 95 93 88 
79	3	4		98 97 93 92 
80	3	4		98 94 93 92 
81	3	3		99 93 88 
82	3	3		101 95 88 
83	3	3		97 89 88 
84	3	2		96 88 
85	3	2		94 89 
86	3	2		93 92 
87	3	2		93 92 
88	3	1		92 
89	3	1		92 
90	3	1		92 
91	3	1		92 
92	3	1		102 
93	3	1		102 
94	3	1		102 
95	3	1		102 
96	3	1		102 
97	3	1		102 
98	3	1		102 
99	3	1		102 
100	3	1		102 
101	3	1		102 
102	1	0		
************************************************************************
REQUESTS/DURATIONS
jobnr.	mode	dur	R1	R2	R3	R4	N1	N2	
------------------------------------------------------------------------
1	1	0	0	0	0	0	0	0	
2	1	16	5	3	3	4	23	18	
	2	23	3	3	3	4	19	11	
	3	28	3	3	3	4	18	1	
3	1	5	5	2	3	4	14	15	
	2	9	5	1	3	3	14	14	
	3	26	5	1	3	3	14	13	
4	1	4	2	4	5	4	18	13	
	2	19	2	3	5	4	15	8	
	3	28	2	3	5	4	7	1	
5	1	4	3	4	3	2	30	22	
	2	15	2	3	2	2	23	10	
	3	26	2	3	2	2	17	5	
6	1	3	4	4	4	1	25	10	
	2	4	4	3	3	1	18	7	
	3	6	4	3	3	1	11	4	
7	1	5	1	3	4	3	19	24	
	2	16	1	2	4	2	14	21	
	3	18	1	2	4	1	10	18	
8	1	11	2	3	2	3	25	6	
	2	15	2	2	2	2	23	6	
	3	26	1	1	2	2	21	4	
9	1	4	1	4	5	3	22	28	
	2	7	1	3	4	3	15	28	
	3	28	1	3	4	2	12	28	
10	1	3	4	3	4	4	16	9	
	2	10	4	2	3	3	14	7	
	3	18	4	2	2	3	7	5	
11	1	1	4	1	1	5	23	16	
	2	4	2	1	1	4	21	15	
	3	9	1	1	1	4	21	15	
12	1	13	3	3	5	3	18	25	
	2	22	3	2	3	3	14	21	
	3	25	3	1	2	2	11	20	
13	1	1	2	4	4	2	12	10	
	2	9	2	3	4	1	9	10	
	3	17	2	2	4	1	5	3	
14	1	19	5	2	2	4	27	7	
	2	23	4	2	2	4	23	5	
	3	28	3	1	2	4	21	3	
15	1	1	3	4	3	3	16	27	
	2	16	3	4	3	2	16	24	
	3	29	2	3	2	1	9	22	
16	1	10	1	3	4	4	22	12	
	2	28	1	3	3	4	14	9	
	3	29	1	2	3	4	9	7	
17	1	7	5	4	4	3	25	29	
	2	12	4	2	3	3	25	29	
	3	14	4	1	3	2	25	29	
18	1	7	3	3	4	4	20	15	
	2	25	3	2	3	4	17	12	
	3	28	2	2	2	4	13	7	
19	1	13	2	3	3	4	26	21	
	2	18	2	2	2	4	14	15	
	3	21	2	1	2	4	12	9	
20	1	7	1	5	1	2	22	14	
	2	22	1	3	1	1	20	11	
	3	27	1	3	1	1	19	10	
21	1	2	1	4	3	4	24	19	
	2	10	1	3	3	4	20	18	
	3	26	1	3	2	4	18	15	
22	1	3	4	4	3	4	9	18	
	2	13	4	3	2	3	6	15	
	3	17	4	3	2	2	1	11	
23	1	8	4	3	2	2	21	15	
	2	10	3	3	1	2	15	13	
	3	29	2	2	1	2	12	5	
24	1	14	4	4	4	2	28	15	
	2	21	3	4	3	1	21	14	
	3	23	3	4	3	1	17	11	
25	1	18	2	3	1	1	24	25	
	2	19	2	2	1	1	15	13	
	3	21	1	1	1	1	12	10	
26	1	1	3	5	4	3	8	13	
	2	14	3	4	3	3	8	10	
	3	26	2	4	3	2	8	5	
27	1	5	5	4	5	3	23	17	
	2	9	5	3	3	2	20	17	
	3	11	5	3	3	2	19	16	
28	1	3	4	1	2	3	22	30	
	2	12	4	1	1	1	17	29	
	3	24	3	1	1	1	11	28	
29	1	11	2	3	4	5	22	21	
	2	13	2	3	3	3	15	19	
	3	20	2	3	3	2	9	13	
30	1	8	3	2	4	3	18	1	
	2	10	1	2	3	2	12	1	
	3	23	1	2	2	1	10	1	
31	1	1	4	3	4	5	29	19	
	2	9	3	3	2	4	22	14	
	3	20	2	2	1	4	18	11	
32	1	21	5	4	4	2	16	17	
	2	24	4	3	3	2	15	17	
	3	25	4	2	1	2	11	17	
33	1	18	1	4	1	5	15	14	
	2	28	1	3	1	4	9	11	
	3	29	1	2	1	3	6	8	
34	1	10	2	2	3	3	3	23	
	2	18	1	1	2	3	2	20	
	3	19	1	1	2	3	2	18	
35	1	6	4	4	5	2	20	27	
	2	17	4	3	3	1	14	25	
	3	23	2	1	3	1	8	23	
36	1	3	5	1	4	5	23	7	
	2	12	3	1	4	4	22	4	
	3	17	2	1	4	3	22	3	
37	1	8	3	4	5	4	13	21	
	2	17	2	2	4	3	8	19	
	3	26	2	1	2	2	6	17	
38	1	13	2	3	2	3	21	17	
	2	19	1	2	2	3	19	17	
	3	27	1	2	2	3	17	17	
39	1	3	5	3	4	5	25	24	
	2	18	3	2	4	3	20	24	
	3	28	3	2	4	3	17	24	
40	1	8	2	3	4	3	25	15	
	2	16	2	2	3	3	21	14	
	3	24	2	2	3	3	18	8	
41	1	5	2	1	2	3	13	29	
	2	9	2	1	1	2	13	24	
	3	20	2	1	1	2	12	19	
42	1	9	4	3	3	5	20	9	
	2	15	3	2	3	4	13	9	
	3	26	2	1	3	3	12	9	
43	1	5	5	5	4	4	5	18	
	2	8	3	4	3	2	4	16	
	3	17	1	3	3	2	4	16	
44	1	11	2	4	2	4	23	19	
	2	27	2	4	2	3	21	18	
	3	28	2	4	1	3	17	16	
45	1	4	2	4	4	4	16	10	
	2	5	2	3	4	3	12	7	
	3	29	2	2	4	2	11	3	
46	1	3	3	3	4	3	3	25	
	2	15	2	3	2	2	1	21	
	3	22	2	3	2	2	1	14	
47	1	2	1	4	3	3	8	22	
	2	8	1	3	1	3	8	14	
	3	9	1	3	1	2	6	11	
48	1	3	4	1	1	3	17	27	
	2	16	3	1	1	3	13	18	
	3	27	3	1	1	3	12	12	
49	1	1	5	3	3	5	17	28	
	2	3	3	3	2	4	14	26	
	3	9	3	3	1	4	12	23	
50	1	3	2	1	4	4	12	22	
	2	28	1	1	3	2	7	17	
	3	29	1	1	3	2	6	7	
51	1	17	5	1	5	4	22	21	
	2	19	4	1	4	4	13	16	
	3	20	4	1	3	2	8	12	
52	1	21	2	2	3	3	24	16	
	2	24	1	2	3	2	21	10	
	3	26	1	2	3	1	19	7	
53	1	1	2	4	2	4	12	26	
	2	12	1	4	2	3	8	25	
	3	15	1	4	2	3	7	25	
54	1	8	5	4	5	2	18	7	
	2	12	4	4	4	2	16	6	
	3	17	4	2	3	2	10	5	
55	1	15	5	3	3	4	12	23	
	2	17	5	2	3	4	12	18	
	3	24	5	1	2	4	11	14	
56	1	19	4	4	1	4	24	28	
	2	22	4	2	1	3	23	28	
	3	24	3	2	1	2	22	27	
57	1	12	2	5	5	3	3	22	
	2	15	2	2	3	2	2	20	
	3	16	2	1	1	2	2	19	
58	1	8	2	5	2	4	16	17	
	2	10	2	2	2	3	14	14	
	3	29	2	1	2	3	14	13	
59	1	16	5	4	2	1	22	22	
	2	20	4	3	1	1	21	17	
	3	23	3	2	1	1	21	6	
60	1	2	2	4	3	4	21	17	
	2	7	2	3	3	2	16	12	
	3	24	2	3	3	2	13	9	
61	1	2	4	4	1	4	22	23	
	2	3	4	3	1	3	16	18	
	3	26	2	1	1	3	12	11	
62	1	4	4	4	5	5	12	22	
	2	19	3	3	5	5	11	12	
	3	24	1	2	5	5	10	11	
63	1	4	2	4	2	2	29	22	
	2	22	2	3	2	2	25	10	
	3	27	2	3	2	1	20	10	
64	1	4	1	5	3	4	30	14	
	2	14	1	4	2	3	25	14	
	3	15	1	3	2	2	22	12	
65	1	8	2	5	3	1	14	12	
	2	9	2	4	2	1	14	12	
	3	22	2	4	2	1	13	12	
66	1	12	5	5	4	4	24	19	
	2	13	2	3	4	4	11	9	
	3	19	1	3	4	3	4	8	
67	1	14	4	2	4	3	17	26	
	2	18	3	1	4	3	12	22	
	3	20	2	1	4	2	9	15	
68	1	9	3	4	3	5	28	21	
	2	15	2	4	2	2	18	10	
	3	17	1	4	1	2	6	4	
69	1	8	1	2	4	1	16	3	
	2	10	1	2	4	1	9	3	
	3	28	1	1	4	1	5	3	
70	1	7	3	4	3	1	15	20	
	2	12	2	3	2	1	10	13	
	3	18	2	1	2	1	8	7	
71	1	12	1	2	4	5	23	23	
	2	13	1	1	3	2	13	20	
	3	27	1	1	3	2	10	19	
72	1	3	3	2	3	3	20	9	
	2	9	2	2	3	1	16	7	
	3	28	2	2	3	1	7	6	
73	1	13	3	2	1	3	29	28	
	2	27	2	1	1	2	28	23	
	3	30	1	1	1	2	26	23	
74	1	5	3	1	4	5	19	4	
	2	14	3	1	3	5	16	4	
	3	28	3	1	3	5	6	2	
75	1	2	2	3	3	3	24	26	
	2	3	2	3	3	3	14	24	
	3	30	1	1	3	3	13	20	
76	1	2	4	2	5	4	24	15	
	2	8	2	2	5	3	20	15	
	3	10	2	2	5	1	20	14	
77	1	14	3	4	3	3	7	18	
	2	17	3	2	3	1	4	12	
	3	29	3	1	3	1	3	4	
78	1	25	4	3	4	5	8	4	
	2	27	2	2	3	4	5	3	
	3	28	2	1	3	3	5	3	
79	1	22	5	5	2	1	24	21	
	2	23	5	5	2	1	18	13	
	3	28	5	5	2	1	13	4	
80	1	8	1	4	3	4	24	23	
	2	20	1	3	3	3	21	22	
	3	21	1	3	3	1	8	22	
81	1	14	4	1	3	3	23	7	
	2	28	4	1	3	3	19	7	
	3	30	4	1	3	3	15	7	
82	1	6	4	3	4	2	21	17	
	2	16	3	2	3	1	18	11	
	3	24	3	2	2	1	13	6	
83	1	7	5	3	2	1	26	16	
	2	10	3	2	1	1	19	10	
	3	27	3	1	1	1	12	7	
84	1	6	4	3	2	3	17	26	
	2	22	2	3	2	2	11	15	
	3	23	2	2	2	2	3	10	
85	1	1	2	2	4	5	30	12	
	2	2	2	1	4	5	28	6	
	3	19	1	1	4	5	28	4	
86	1	2	5	3	5	1	18	15	
	2	14	2	2	5	1	11	12	
	3	24	2	1	5	1	5	6	
87	1	2	4	4	5	4	24	21	
	2	15	2	4	5	3	21	20	
	3	17	1	4	5	1	18	17	
88	1	20	4	3	5	3	27	8	
	2	25	2	3	3	3	24	7	
	3	29	2	3	3	3	24	6	
89	1	1	4	4	3	1	19	21	
	2	18	2	4	2	1	15	20	
	3	28	2	4	2	1	8	13	
90	1	8	5	3	4	4	18	7	
	2	25	4	2	4	4	12	4	
	3	28	2	2	4	4	11	3	
91	1	16	4	5	5	5	28	8	
	2	22	3	2	3	4	23	7	
	3	25	3	1	2	4	20	3	
92	1	6	2	4	4	3	17	16	
	2	19	2	4	3	3	12	16	
	3	24	2	4	1	1	10	16	
93	1	4	4	2	1	4	16	21	
	2	11	3	2	1	3	12	18	
	3	26	2	2	1	2	10	9	
94	1	10	3	3	4	3	22	23	
	2	13	2	3	4	1	20	15	
	3	25	2	1	3	1	17	13	
95	1	8	5	4	3	1	24	12	
	2	10	4	4	3	1	18	10	
	3	17	3	4	3	1	15	2	
96	1	14	3	3	3	2	7	16	
	2	23	2	2	3	2	5	14	
	3	24	1	2	3	2	4	7	
97	1	7	4	3	4	2	27	11	
	2	8	4	2	3	1	26	9	
	3	15	3	2	3	1	26	8	
98	1	13	1	1	5	3	13	18	
	2	22	1	1	4	2	11	17	
	3	25	1	1	3	2	10	4	
99	1	10	5	4	5	2	27	7	
	2	17	3	2	4	2	25	6	
	3	29	3	1	3	2	24	6	
100	1	14	1	2	3	4	22	27	
	2	21	1	2	2	3	12	26	
	3	27	1	2	1	3	7	26	
101	1	9	4	4	3	5	16	17	
	2	20	3	4	1	4	12	13	
	3	27	3	4	1	4	6	11	
102	1	0	0	0	0	0	0	0	
************************************************************************

 RESOURCE AVAILABILITIES 
	R 1	R 2	R 3	R 4	N 1	N 2
	186	167	173	182	1590	1446

************************************************************************
